certificates/rado_a5_c283_N56.cnf
c Rad2 upper bound instance: x1 + 5*x2 - x3 = 283, interval [1,56]
p cnf 56 616
1 4 56 0
-1 -4 -56 0
2 5 56 0
-2 -5 -56 0
3 6 56 0
-3 -6 -56 0
4 7 56 0
-4 -7 -56 0
5 8 56 0
-5 -8 -56 0
1 9 55 0
-1 -9 -55 0
6 9 56 0
-6 -9 -56 0
2 10 55 0
-2 -10 -55 0
7 10 56 0
-7 -10 -56 0
3 11 55 0
-3 -11 -55 0
8 11 56 0
-8 -11 -56 0
4 12 55 0
-4 -12 -55 0
9 12 56 0
-9 -12 -56 0
5 13 55 0
-5 -13 -55 0
10 13 56 0
-10 -13 -56 0
1 14 54 0
-1 -14 -54 0
6 14 55 0
-6 -14 -55 0
11 14 56 0
-11 -14 -56 0
2 15 54 0
-2 -15 -54 0
7 15 55 0
-7 -15 -55 0
12 15 56 0
-12 -15 -56 0
3 16 54 0
-3 -16 -54 0
8 16 55 0
-8 -16 -55 0
13 16 56 0
-13 -16 -56 0
4 17 54 0
-4 -17 -54 0
9 17 55 0
-9 -17 -55 0
14 17 56 0
-14 -17 -56 0
5 18 54 0
-5 -18 -54 0
10 18 55 0
-10 -18 -55 0
15 18 56 0
-15 -18 -56 0
1 19 53 0
-1 -19 -53 0
6 19 54 0
-6 -19 -54 0
11 19 55 0
-11 -19 -55 0
16 19 56 0
-16 -19 -56 0
2 20 53 0
-2 -20 -53 0
7 20 54 0
-7 -20 -54 0
12 20 55 0
-12 -20 -55 0
17 20 56 0
-17 -20 -56 0
3 21 53 0
-3 -21 -53 0
8 21 54 0
-8 -21 -54 0
13 21 55 0
-13 -21 -55 0
18 21 56 0
-18 -21 -56 0
4 22 53 0
-4 -22 -53 0
9 22 54 0
-9 -22 -54 0
14 22 55 0
-14 -22 -55 0
19 22 56 0
-19 -22 -56 0
5 23 53 0
-5 -23 -53 0
10 23 54 0
-10 -23 -54 0
15 23 55 0
-15 -23 -55 0
20 23 56 0
-20 -23 -56 0
1 24 52 0
-1 -24 -52 0
6 24 53 0
-6 -24 -53 0
11 24 54 0
-11 -24 -54 0
16 24 55 0
-16 -24 -55 0
21 24 56 0
-21 -24 -56 0
2 25 52 0
-2 -25 -52 0
7 25 53 0
-7 -25 -53 0
12 25 54 0
-12 -25 -54 0
17 25 55 0
-17 -25 -55 0
22 25 56 0
-22 -25 -56 0
3 26 52 0
-3 -26 -52 0
8 26 53 0
-8 -26 -53 0
13 26 54 0
-13 -26 -54 0
18 26 55 0
-18 -26 -55 0
23 26 56 0
-23 -26 -56 0
4 27 52 0
-4 -27 -52 0
9 27 53 0
-9 -27 -53 0
14 27 54 0
-14 -27 -54 0
19 27 55 0
-19 -27 -55 0
24 27 56 0
-24 -27 -56 0
5 28 52 0
-5 -28 -52 0
10 28 53 0
-10 -28 -53 0
15 28 54 0
-15 -28 -54 0
20 28 55 0
-20 -28 -55 0
25 28 56 0
-25 -28 -56 0
1 29 51 0
-1 -29 -51 0
6 29 52 0
-6 -29 -52 0
11 29 53 0
-11 -29 -53 0
16 29 54 0
-16 -29 -54 0
21 29 55 0
-21 -29 -55 0
26 29 56 0
-26 -29 -56 0
2 30 51 0
-2 -30 -51 0
7 30 52 0
-7 -30 -52 0
12 30 53 0
-12 -30 -53 0
17 30 54 0
-17 -30 -54 0
22 30 55 0
-22 -30 -55 0
27 30 56 0
-27 -30 -56 0
3 31 51 0
-3 -31 -51 0
8 31 52 0
-8 -31 -52 0
13 31 53 0
-13 -31 -53 0
18 31 54 0
-18 -31 -54 0
23 31 55 0
-23 -31 -55 0
28 31 56 0
-28 -31 -56 0
4 32 51 0
-4 -32 -51 0
9 32 52 0
-9 -32 -52 0
14 32 53 0
-14 -32 -53 0
19 32 54 0
-19 -32 -54 0
24 32 55 0
-24 -32 -55 0
29 32 56 0
-29 -32 -56 0
5 33 51 0
-5 -33 -51 0
10 33 52 0
-10 -33 -52 0
15 33 53 0
-15 -33 -53 0
20 33 54 0
-20 -33 -54 0
25 33 55 0
-25 -33 -55 0
30 33 56 0
-30 -33 -56 0
1 34 50 0
-1 -34 -50 0
6 34 51 0
-6 -34 -51 0
11 34 52 0
-11 -34 -52 0
16 34 53 0
-16 -34 -53 0
21 34 54 0
-21 -34 -54 0
26 34 55 0
-26 -34 -55 0
31 34 56 0
-31 -34 -56 0
2 35 50 0
-2 -35 -50 0
7 35 51 0
-7 -35 -51 0
12 35 52 0
-12 -35 -52 0
17 35 53 0
-17 -35 -53 0
22 35 54 0
-22 -35 -54 0
27 35 55 0
-27 -35 -55 0
32 35 56 0
-32 -35 -56 0
3 36 50 0
-3 -36 -50 0
8 36 51 0
-8 -36 -51 0
13 36 52 0
-13 -36 -52 0
18 36 53 0
-18 -36 -53 0
23 36 54 0
-23 -36 -54 0
28 36 55 0
-28 -36 -55 0
33 36 56 0
-33 -36 -56 0
4 37 50 0
-4 -37 -50 0
9 37 51 0
-9 -37 -51 0
14 37 52 0
-14 -37 -52 0
19 37 53 0
-19 -37 -53 0
24 37 54 0
-24 -37 -54 0
29 37 55 0
-29 -37 -55 0
34 37 56 0
-34 -37 -56 0
5 38 50 0
-5 -38 -50 0
10 38 51 0
-10 -38 -51 0
15 38 52 0
-15 -38 -52 0
20 38 53 0
-20 -38 -53 0
25 38 54 0
-25 -38 -54 0
30 38 55 0
-30 -38 -55 0
35 38 56 0
-35 -38 -56 0
1 39 49 0
-1 -39 -49 0
6 39 50 0
-6 -39 -50 0
11 39 51 0
-11 -39 -51 0
16 39 52 0
-16 -39 -52 0
21 39 53 0
-21 -39 -53 0
26 39 54 0
-26 -39 -54 0
31 39 55 0
-31 -39 -55 0
36 39 56 0
-36 -39 -56 0
2 40 49 0
-2 -40 -49 0
7 40 50 0
-7 -40 -50 0
12 40 51 0
-12 -40 -51 0
17 40 52 0
-17 -40 -52 0
22 40 53 0
-22 -40 -53 0
27 40 54 0
-27 -40 -54 0
32 40 55 0
-32 -40 -55 0
37 40 56 0
-37 -40 -56 0
3 41 49 0
-3 -41 -49 0
8 41 50 0
-8 -41 -50 0
13 41 51 0
-13 -41 -51 0
18 41 52 0
-18 -41 -52 0
23 41 53 0
-23 -41 -53 0
28 41 54 0
-28 -41 -54 0
33 41 55 0
-33 -41 -55 0
38 41 56 0
-38 -41 -56 0
4 42 49 0
-4 -42 -49 0
9 42 50 0
-9 -42 -50 0
14 42 51 0
-14 -42 -51 0
19 42 52 0
-19 -42 -52 0
24 42 53 0
-24 -42 -53 0
29 42 54 0
-29 -42 -54 0
34 42 55 0
-34 -42 -55 0
39 42 56 0
-39 -42 -56 0
5 43 49 0
-5 -43 -49 0
10 43 50 0
-10 -43 -50 0
15 43 51 0
-15 -43 -51 0
20 43 52 0
-20 -43 -52 0
25 43 53 0
-25 -43 -53 0
30 43 54 0
-30 -43 -54 0
35 43 55 0
-35 -43 -55 0
40 43 56 0
-40 -43 -56 0
1 44 48 0
-1 -44 -48 0
6 44 49 0
-6 -44 -49 0
11 44 50 0
-11 -44 -50 0
16 44 51 0
-16 -44 -51 0
21 44 52 0
-21 -44 -52 0
26 44 53 0
-26 -44 -53 0
31 44 54 0
-31 -44 -54 0
36 44 55 0
-36 -44 -55 0
41 44 56 0
-41 -44 -56 0
2 45 48 0
-2 -45 -48 0
7 45 49 0
-7 -45 -49 0
12 45 50 0
-12 -45 -50 0
17 45 51 0
-17 -45 -51 0
22 45 52 0
-22 -45 -52 0
27 45 53 0
-27 -45 -53 0
32 45 54 0
-32 -45 -54 0
37 45 55 0
-37 -45 -55 0
42 45 56 0
-42 -45 -56 0
3 46 48 0
-3 -46 -48 0
8 46 49 0
-8 -46 -49 0
13 46 50 0
-13 -46 -50 0
18 46 51 0
-18 -46 -51 0
23 46 52 0
-23 -46 -52 0
28 46 53 0
-28 -46 -53 0
33 46 54 0
-33 -46 -54 0
38 46 55 0
-38 -46 -55 0
43 46 56 0
-43 -46 -56 0
4 47 48 0
-4 -47 -48 0
9 47 49 0
-9 -47 -49 0
14 47 50 0
-14 -47 -50 0
19 47 51 0
-19 -47 -51 0
24 47 52 0
-24 -47 -52 0
29 47 53 0
-29 -47 -53 0
34 47 54 0
-34 -47 -54 0
39 47 55 0
-39 -47 -55 0
44 47 56 0
-44 -47 -56 0
5 48 0
-5 -48 0
10 48 49 0
-10 -48 -49 0
15 48 50 0
-15 -48 -50 0
20 48 51 0
-20 -48 -51 0
25 48 52 0
-25 -48 -52 0
30 48 53 0
-30 -48 -53 0
35 48 54 0
-35 -48 -54 0
40 48 55 0
-40 -48 -55 0
45 48 56 0
-45 -48 -56 0
1 47 49 0
-1 -47 -49 0
6 48 49 0
-6 -48 -49 0
11 49 0
-11 -49 0
16 49 50 0
-16 -49 -50 0
21 49 51 0
-21 -49 -51 0
26 49 52 0
-26 -49 -52 0
31 49 53 0
-31 -49 -53 0
36 49 54 0
-36 -49 -54 0
41 49 55 0
-41 -49 -55 0
46 49 56 0
-46 -49 -56 0
2 47 50 0
-2 -47 -50 0
7 48 50 0
-7 -48 -50 0
12 49 50 0
-12 -49 -50 0
17 50 0
-17 -50 0
22 50 51 0
-22 -50 -51 0
27 50 52 0
-27 -50 -52 0
32 50 53 0
-32 -50 -53 0
37 50 54 0
-37 -50 -54 0
42 50 55 0
-42 -50 -55 0
47 50 56 0
-47 -50 -56 0
3 47 51 0
-3 -47 -51 0
8 48 51 0
-8 -48 -51 0
13 49 51 0
-13 -49 -51 0
18 50 51 0
-18 -50 -51 0
23 51 0
-23 -51 0
28 51 52 0
-28 -51 -52 0
33 51 53 0
-33 -51 -53 0
38 51 54 0
-38 -51 -54 0
43 51 55 0
-43 -51 -55 0
48 51 56 0
-48 -51 -56 0
4 47 52 0
-4 -47 -52 0
9 48 52 0
-9 -48 -52 0
14 49 52 0
-14 -49 -52 0
19 50 52 0
-19 -50 -52 0
24 51 52 0
-24 -51 -52 0
29 52 0
-29 -52 0
34 52 53 0
-34 -52 -53 0
39 52 54 0
-39 -52 -54 0
44 52 55 0
-44 -52 -55 0
49 52 56 0
-49 -52 -56 0
5 47 53 0
-5 -47 -53 0
10 48 53 0
-10 -48 -53 0
15 49 53 0
-15 -49 -53 0
20 50 53 0
-20 -50 -53 0
25 51 53 0
-25 -51 -53 0
30 52 53 0
-30 -52 -53 0
35 53 0
-35 -53 0
40 53 54 0
-40 -53 -54 0
45 53 55 0
-45 -53 -55 0
50 53 56 0
-50 -53 -56 0
1 46 54 0
-1 -46 -54 0
6 47 54 0
-6 -47 -54 0
11 48 54 0
-11 -48 -54 0
16 49 54 0
-16 -49 -54 0
21 50 54 0
-21 -50 -54 0
26 51 54 0
-26 -51 -54 0
31 52 54 0
-31 -52 -54 0
36 53 54 0
-36 -53 -54 0
41 54 0
-41 -54 0
46 54 55 0
-46 -54 -55 0
51 54 56 0
-51 -54 -56 0
2 46 55 0
-2 -46 -55 0
7 47 55 0
-7 -47 -55 0
12 48 55 0
-12 -48 -55 0
17 49 55 0
-17 -49 -55 0
22 50 55 0
-22 -50 -55 0
27 51 55 0
-27 -51 -55 0
32 52 55 0
-32 -52 -55 0
37 53 55 0
-37 -53 -55 0
42 54 55 0
-42 -54 -55 0
47 55 0
-47 -55 0
52 55 56 0
-52 -55 -56 0
3 46 56 0
-3 -46 -56 0
8 47 56 0
-8 -47 -56 0
13 48 56 0
-13 -48 -56 0
18 49 56 0
-18 -49 -56 0
23 50 56 0
-23 -50 -56 0
28 51 56 0
-28 -51 -56 0
33 52 56 0
-33 -52 -56 0
38 53 56 0
-38 -53 -56 0
43 54 56 0
-43 -54 -56 0
48 55 56 0
-48 -55 -56 0
53 56 0
-53 -56 0
