certificates/rado_a5_c283_N56.drat
-56 0
53 0
-35 0
32 0
38 0
-14 0
-50 0
-20 0
11 0
17 0
47 0
23 0
2 0
-29 0
-49 0
-5 0
-55 0
-41 0
-51 0
21 0
26 0
37 0
52 0
16 0
0
